#init
units metal
dimension 3
atom_style charge
boundary p p p

#sys
region box block 0 40 0 40 0 40
create_box 2 box

create_atoms 1 single 20 0 0
create_atoms 2 single 0 0 0

mass 1 26.9815
mass 2 15.9994
set atom 1 charge 1.4175 
set atom 2 charge -0.9450

#potential config
pair_style born/coul/long 10.0
pair_coeff 1 1 0.00294848 0.068 1.5704 14.561856 0.0
pair_coeff 1 2 0.00745792 0.172 2.6067 35.836056 0.0
pair_coeff 2 2 0.01196736 0.276 3.6430 88.190881 0.0

kspace_style pppm 1.0e-4

#sim settings
thermo 100
thermo_style custom step ke pe etotal
dump f all custom 100 forces.* id type fx fy fz
dump dmp all atom 100 two_atoms.lammpstrj

#run
timestep 0.001
velocity 1 set -0.01 0 0
run 50000


